MILP.lp
\ LP format - for model browsing. Use MPS format to capture full model detail.
Minimize
 
Subject To
 R0: 10000 node_1_0 + contract_0_0 <= 10000
 R1: 10000 node_1_0 + contract_0_0 >= 0.0001
 R2: - contract_0_0 + 10000 node_2_0 <= 10000
 R3: - contract_0_0 + 10000 node_2_0 >= 0.0001
 R4: node_0_0 = 1
 R5: 10000 node_4_0 + contract_1_0 <= 10000
 R6: 10000 node_4_0 + contract_1_0 >= 0.0001
 R7: - contract_1_0 + 10000 node_5_0 <= 10000
 R8: - contract_1_0 + 10000 node_5_0 >= 0.0001
 R9: node_3_0 = 1
 R10: - contract_0_0 + 10000 node_7_0 <= 9755
 R11: - contract_0_0 + 10000 node_7_0 >= -244.9999
 R12: 10000 node_7_1 - contract_0_1 <= 9755
 R13: 10000 node_7_1 - contract_0_1 >= -244.9999
 R14: 10000 node_7_2 - contract_0_2 <= 9755
 R15: 10000 node_7_2 - contract_0_2 >= -244.9999
 R16: 10000 node_7_3 - contract_0_3 <= 9755
 R17: 10000 node_7_3 - contract_0_3 >= -244.9999
 R18: 10000 node_7_4 - contract_0_4 <= 9755
 R19: 10000 node_7_4 - contract_0_4 >= -244.9999
 R20: 10000 node_7_5 - contract_0_5 <= 9755
 R21: 10000 node_7_5 - contract_0_5 >= -244.9999
 R22: 10000 node_7_6 - contract_0_6 <= 9755
 R23: 10000 node_7_6 - contract_0_6 >= -244.9999
 R24: 10000 node_7_7 - contract_0_7 <= 9755
 R25: 10000 node_7_7 - contract_0_7 >= -244.9999
 R26: 10000 node_7_8 - contract_0_8 <= 9755
 R27: 10000 node_7_8 - contract_0_8 >= -244.9999
 R28: 10000 node_7_9 - contract_0_9 <= 9755
 R29: 10000 node_7_9 - contract_0_9 >= -244.9999
 R30: 10000 node_7_10 - contract_0_10 <= 9755
 R31: 10000 node_7_10 - contract_0_10 >= -244.9999
 R32: 10000 node_7_11 - contract_0_11 <= 9755
 R33: 10000 node_7_11 - contract_0_11 >= -244.9999
 R34: 10000 node_7_12 - contract_0_12 <= 9755
 R35: 10000 node_7_12 - contract_0_12 >= -244.9999
 R36: 10000 node_7_13 - contract_0_13 <= 9755
 R37: 10000 node_7_13 - contract_0_13 >= -244.9999
 R38: 10000 node_7_14 - contract_0_14 <= 9755
 R39: 10000 node_7_14 - contract_0_14 >= -244.9999
 R40: 10000 node_7_15 - contract_0_15 <= 9755
 R41: 10000 node_7_15 - contract_0_15 >= -244.9999
 R42: 10000 node_7_16 - contract_0_16 <= 9755
 R43: 10000 node_7_16 - contract_0_16 >= -244.9999
 R44: 10000 node_7_17 - contract_0_17 <= 9755
 R45: 10000 node_7_17 - contract_0_17 >= -244.9999
 R46: 10000 node_7_18 - contract_0_18 <= 9755
 R47: 10000 node_7_18 - contract_0_18 >= -244.9999
 R48: 10000 node_7_19 - contract_0_19 <= 9755
 R49: 10000 node_7_19 - contract_0_19 >= -244.9999
 R50: 10000 node_7_20 - contract_0_20 <= 9755
 R51: 10000 node_7_20 - contract_0_20 >= -244.9999
 R52: 10000 node_7_21 - contract_0_21 <= 9755
 R53: 10000 node_7_21 - contract_0_21 >= -244.9999
 R54: 10000 node_7_22 - contract_0_22 <= 9755
 R55: 10000 node_7_22 - contract_0_22 >= -244.9999
 R56: 10000 node_7_23 - contract_0_23 <= 9755
 R57: 10000 node_7_23 - contract_0_23 >= -244.9999
 R58: 10000 node_7_24 - contract_0_24 <= 9755
 R59: 10000 node_7_24 - contract_0_24 >= -244.9999
 R60: 10000 node_7_25 - contract_0_25 <= 9755
 R61: 10000 node_7_25 - contract_0_25 >= -244.9999
 R62: 10000 node_7_26 - contract_0_26 <= 9755
 R63: 10000 node_7_26 - contract_0_26 >= -244.9999
 R64: 10000 node_7_27 - contract_0_27 <= 9755
 R65: 10000 node_7_27 - contract_0_27 >= -244.9999
 R66: 10000 node_7_28 - contract_0_28 <= 9755
 R67: 10000 node_7_28 - contract_0_28 >= -244.9999
 R68: 10000 node_7_29 - contract_0_29 <= 9755
 R69: 10000 node_7_29 - contract_0_29 >= -244.9999
 R70: 10000 node_7_30 - contract_0_30 <= 9755
 R71: 10000 node_7_30 - contract_0_30 >= -244.9999
 R72: node_6_0 = 1
 R73: - contract_0_0 - contract_1_0 + contract_0_1 = 0
 R74: - contract_0_1 + contract_0_2 - contract_1_1 = 0
 R75: - contract_0_2 + contract_0_3 - contract_1_2 = 0
 R76: - contract_0_3 + contract_0_4 - contract_1_3 = 0
 R77: - contract_0_4 + contract_0_5 - contract_1_4 = 0
 R78: - contract_0_5 + contract_0_6 - contract_1_5 = 0
 R79: - contract_0_6 + contract_0_7 - contract_1_6 = 0
 R80: - contract_0_7 + contract_0_8 - contract_1_7 = 0
 R81: - contract_0_8 + contract_0_9 - contract_1_8 = 0
 R82: - contract_0_9 + contract_0_10 - contract_1_9 = 0
 R83: - contract_0_10 + contract_0_11 - contract_1_10 = 0
 R84: - contract_0_11 + contract_0_12 - contract_1_11 = 0
 R85: - contract_0_12 + contract_0_13 - contract_1_12 = 0
 R86: - contract_0_13 + contract_0_14 - contract_1_13 = 0
 R87: - contract_0_14 + contract_0_15 - contract_1_14 = 0
 R88: - contract_0_15 + contract_0_16 - contract_1_15 = 0
 R89: - contract_0_16 + contract_0_17 - contract_1_16 = 0
 R90: - contract_0_17 + contract_0_18 - contract_1_17 = 0
 R91: - contract_0_18 + contract_0_19 - contract_1_18 = 0
 R92: - contract_0_19 + contract_0_20 - contract_1_19 = 0
 R93: - contract_0_20 + contract_0_21 - contract_1_20 = 0
 R94: - contract_0_21 + contract_0_22 - contract_1_21 = 0
 R95: - contract_0_22 + contract_0_23 - contract_1_22 = 0
 R96: - contract_0_23 + contract_0_24 - contract_1_23 = 0
 R97: - contract_0_24 + contract_0_25 - contract_1_24 = 0
 R98: - contract_0_25 + contract_0_26 - contract_1_25 = 0
 R99: - contract_0_26 + contract_0_27 - contract_1_26 = 0
 R100: - contract_0_27 + contract_0_28 - contract_1_27 = 0
 R101: - contract_0_28 + contract_0_29 - contract_1_28 = 0
 R102: - contract_0_29 + contract_0_30 - contract_1_29 = 0
 R103: - contract_1_0 + contract_1_1 - contract_2_0 = 0
 R104: - contract_1_1 + contract_1_2 - contract_2_1 = 0
 R105: - contract_1_2 + contract_1_3 - contract_2_2 = 0
 R106: - contract_1_3 + contract_1_4 - contract_2_3 = 0
 R107: - contract_1_4 + contract_1_5 - contract_2_4 = 0
 R108: - contract_1_5 + contract_1_6 - contract_2_5 = 0
 R109: - contract_1_6 + contract_1_7 - contract_2_6 = 0
 R110: - contract_1_7 + contract_1_8 - contract_2_7 = 0
 R111: - contract_1_8 + contract_1_9 - contract_2_8 = 0
 R112: - contract_1_9 + contract_1_10 - contract_2_9 = 0
 R113: - contract_1_10 + contract_1_11 - contract_2_10 = 0
 R114: - contract_1_11 + contract_1_12 - contract_2_11 = 0
 R115: - contract_1_12 + contract_1_13 - contract_2_12 = 0
 R116: - contract_1_13 + contract_1_14 - contract_2_13 = 0
 R117: - contract_1_14 + contract_1_15 - contract_2_14 = 0
 R118: - contract_1_15 + contract_1_16 - contract_2_15 = 0
 R119: - contract_1_16 + contract_1_17 - contract_2_16 = 0
 R120: - contract_1_17 + contract_1_18 - contract_2_17 = 0
 R121: - contract_1_18 + contract_1_19 - contract_2_18 = 0
 R122: - contract_1_19 + contract_1_20 - contract_2_19 = 0
 R123: - contract_1_20 + contract_1_21 - contract_2_20 = 0
 R124: - contract_1_21 + contract_1_22 - contract_2_21 = 0
 R125: - contract_1_22 + contract_1_23 - contract_2_22 = 0
 R126: - contract_1_23 + contract_1_24 - contract_2_23 = 0
 R127: - contract_1_24 + contract_1_25 - contract_2_24 = 0
 R128: - contract_1_25 + contract_1_26 - contract_2_25 = 0
 R129: - contract_1_26 + contract_1_27 - contract_2_26 = 0
 R130: - contract_1_27 + contract_1_28 - contract_2_27 = 0
 R131: - contract_1_28 + contract_1_29 - contract_2_28 = 0
 R132: - contract_1_29 + contract_1_30 - contract_2_29 = 0
Bounds
 -100 <= contract_0_0 <= 2000
 -5 <= contract_1_0 <= 10
 -100 <= contract_0_1 <= 2000
 -100 <= contract_0_2 <= 2000
 -100 <= contract_0_3 <= 2000
 -100 <= contract_0_4 <= 2000
 -100 <= contract_0_5 <= 2000
 -100 <= contract_0_6 <= 2000
 -100 <= contract_0_7 <= 2000
 -100 <= contract_0_8 <= 2000
 -100 <= contract_0_9 <= 2000
 -100 <= contract_0_10 <= 2000
 -100 <= contract_0_11 <= 2000
 -100 <= contract_0_12 <= 2000
 -100 <= contract_0_13 <= 2000
 -100 <= contract_0_14 <= 2000
 -100 <= contract_0_15 <= 2000
 -100 <= contract_0_16 <= 2000
 -100 <= contract_0_17 <= 2000
 -100 <= contract_0_18 <= 2000
 -100 <= contract_0_19 <= 2000
 -100 <= contract_0_20 <= 2000
 -100 <= contract_0_21 <= 2000
 -100 <= contract_0_22 <= 2000
 -100 <= contract_0_23 <= 2000
 -100 <= contract_0_24 <= 2000
 -100 <= contract_0_25 <= 2000
 -100 <= contract_0_26 <= 2000
 -100 <= contract_0_27 <= 2000
 -100 <= contract_0_28 <= 2000
 -100 <= contract_0_29 <= 2000
 -100 <= contract_0_30 <= 2000
 -5 <= contract_1_1 <= 10
 -5 <= contract_1_2 <= 10
 -5 <= contract_1_3 <= 10
 -5 <= contract_1_4 <= 10
 -5 <= contract_1_5 <= 10
 -5 <= contract_1_6 <= 10
 -5 <= contract_1_7 <= 10
 -5 <= contract_1_8 <= 10
 -5 <= contract_1_9 <= 10
 -5 <= contract_1_10 <= 10
 -5 <= contract_1_11 <= 10
 -5 <= contract_1_12 <= 10
 -5 <= contract_1_13 <= 10
 -5 <= contract_1_14 <= 10
 -5 <= contract_1_15 <= 10
 -5 <= contract_1_16 <= 10
 -5 <= contract_1_17 <= 10
 -5 <= contract_1_18 <= 10
 -5 <= contract_1_19 <= 10
 -5 <= contract_1_20 <= 10
 -5 <= contract_1_21 <= 10
 -5 <= contract_1_22 <= 10
 -5 <= contract_1_23 <= 10
 -5 <= contract_1_24 <= 10
 -5 <= contract_1_25 <= 10
 -5 <= contract_1_26 <= 10
 -5 <= contract_1_27 <= 10
 -5 <= contract_1_28 <= 10
 -5 <= contract_1_29 <= 10
 -1 <= contract_2_0 <= 1
 -1 <= contract_2_1 <= 1
 -1 <= contract_2_2 <= 1
 -1 <= contract_2_3 <= 1
 -1 <= contract_2_4 <= 1
 -1 <= contract_2_5 <= 1
 -1 <= contract_2_6 <= 1
 -1 <= contract_2_7 <= 1
 -1 <= contract_2_8 <= 1
 -1 <= contract_2_9 <= 1
 -1 <= contract_2_10 <= 1
 -1 <= contract_2_11 <= 1
 -1 <= contract_2_12 <= 1
 -1 <= contract_2_13 <= 1
 -1 <= contract_2_14 <= 1
 -1 <= contract_2_15 <= 1
 -1 <= contract_2_16 <= 1
 -1 <= contract_2_17 <= 1
 -1 <= contract_2_18 <= 1
 -1 <= contract_2_19 <= 1
 -1 <= contract_2_20 <= 1
 -1 <= contract_2_21 <= 1
 -1 <= contract_2_22 <= 1
 -1 <= contract_2_23 <= 1
 -1 <= contract_2_24 <= 1
 -1 <= contract_2_25 <= 1
 -1 <= contract_2_26 <= 1
 -1 <= contract_2_27 <= 1
 -1 <= contract_2_28 <= 1
 -5 <= contract_1_30 <= 10
 -1 <= contract_2_29 <= 1
Binaries
 node_0_0 node_1_0 node_2_0 node_3_0 node_4_0 node_5_0 node_6_0 node_7_0
 node_7_1 node_7_2 node_7_3 node_7_4 node_7_5 node_7_6 node_7_7 node_7_8
 node_7_9 node_7_10 node_7_11 node_7_12 node_7_13 node_7_14 node_7_15
 node_7_16 node_7_17 node_7_18 node_7_19 node_7_20 node_7_21 node_7_22
 node_7_23 node_7_24 node_7_25 node_7_26 node_7_27 node_7_28 node_7_29
 node_7_30
General Constraints
 GC0: node_0_0 = AND ( node_1_0 , node_2_0 )
 GC1: node_3_0 = AND ( node_4_0 , node_5_0 )
 GC2: node_6_0 = OR ( node_7_0 , node_7_1 , node_7_2 , node_7_3 ,
   node_7_4 , node_7_5 , node_7_6 , node_7_7 , node_7_8 , node_7_9 ,
   node_7_10 , node_7_11 , node_7_12 , node_7_13 , node_7_14 , node_7_15 ,
   node_7_16 , node_7_17 , node_7_18 , node_7_19 , node_7_20 , node_7_21 ,
   node_7_22 , node_7_23 , node_7_24 , node_7_25 , node_7_26 , node_7_27 ,
   node_7_28 , node_7_29 , node_7_30 )
End
